gil262_1
0 76 175 81 249 236 94 169 261 74 189 202 135 20 124 225 227 128 116 138 153 258 172 19 37 220 1 75 199 191 192 58 228 173 57 140 60 208 123 248 132 34 35 186 155 26 110 252 129 190 4 104 222 53 239 122 32 121 72 170 146 159 213 79 90 44 257 52 36 29 67 125 115 92 54 206 209 5 143 69 215 226 23 253 247 237 235 55 50 254 68 78 187 180 59 148 174 193 183 255 64 231 87 5 22 250 25 101 133 165 126 182 70 195 232 77 218 95 48 162 229 14 137 207 39 11 66 210 85 219 178 108 216 149 185 30 42 203 24 61 141 233 73 102 223 91 145 17 31 84 197 45 3 154 120 166 157 221 112 127 256 82 111 244 167 88 99 107 194 40 168 196 156 204 230 251 10 0